(set-logic ALL)
(set-option :produce-models true)
(declare-sort BoundSet 0)
(declare-sort UnboundSet 0)
(set-option :finite-model-find true)
(declare-fun HasHugeDeficit (BoundSet) Bool)
(declare-fun CanLiveWith (BoundSet BoundSet) Bool)
(declare-fun HasToCut (BoundSet) Bool)
(assert (not (=> (exists ((a BoundSet)) (exists ((b BoundSet)) (and (HasHugeDeficit a) (not (CanLiveWith a b))))) (exists ((c BoundSet)) (HasToCut c)))))
(check-sat)
(get-model)